8	19	2	16	5	13	11	3	19	11
2	1	9	8	8	6	11	2	14	3
3	12	1	17	9	10	9	5	9	6
19	19	13	3	1	4	9	16	16	15
14	14	2	4	12	12	4	20	9	6
8	11	9	4	9	5	4	11	18	18
11	12	8	7	1	15	20	20	20	9
3	7	3	13	6	14	5	12	20	3
2	8	10	17	20	4	11	16	1	18
